108
#Comment!
LJ  -0.31668040073853887   0.31233321492967137   -0.26626898590722486
LJ  0.43060210181194619   -0.35090368373839187   -0.3783784882897086
LJ  0.2166711325029369   -0.14586807666314633   -0.16388927024901825
LJ  -0.42225663644724404   0.44637547747931694   0.31650741070792376
LJ  -0.23636868635625968   0.13620526700019561   0.052953117130230827
LJ  0.20322310058126689   0.49553255042731303   -0.26614842046781517
LJ  0.36551402524850762   0.48992158597363239   -0.11811167967212226
LJ  -0.079274972337523009   0.35560928253872082   0.37660169070793709
LJ  0.31115825804905223   0.43615856151504462   0.41018668046829426
LJ  0.34277228492171763   -0.1050165061004658   -0.34786006412909987
LJ  0.27152496725740816   0.42797421279690562   0.21022164561847212
LJ  0.19575454514753568   0.30574302493888   -0.12909116738562959
LJ  0.049067199792480892   -0.12334048879005266   -0.37522298907788282
LJ  -0.22741458226689781   -0.48735745881853076   0.25946577847579338
LJ  -0.38585010190529162   0.011380335876272268   0.036805651510367
LJ  -0.064813082983994769   0.028586088336306974   0.069647364626699709
LJ  0.043169988007639659   -0.25854006044005645   0.46950859193643019
LJ  -0.3920195803785122   -0.12916751496386991   -0.1117195777191974
LJ  0.24277835500625705   -0.34319496053757081   -0.13148847759024135
LJ  -0.47888782789942691   0.24923877068577024   -0.41937492387459047
LJ  0.13791869663615061   0.48252885690934522   0.066787066639139844
LJ  0.44981793889427441   0.33942460154626064   -0.21791497524180023
LJ  0.25288826725259256   -0.005687733971210542   -0.00079527686045342588
LJ  0.23397708526002103   -0.44218622740041436   -0.46391804324442443
LJ  -0.21858301830910831   0.32493355949828556   -0.027147907807636325
LJ  0.43579125754379588   -0.069212509056674629   -0.050260116812363094
LJ  0.085077446711543145   -0.24162433785080906   0.2355987093714213
LJ  -0.020356925671936258   -0.46688672982527102   0.19482245690582936
LJ  -0.043286015330619695   0.0035283077407512759   -0.27011694328489211
LJ  -0.22313719813018873   -0.48854482469714922   -0.15020255889494408
LJ  -0.22722256762665538   -0.24148835053352552   -0.21497944608884575
LJ  -0.032988922124937883   -0.091386341167198945   0.25783162541877075
LJ  0.45582173565311596   0.27863228259909878   0.31313562243876192
LJ  -0.27007504951591321   -0.072731505131226781   0.45654418325019469
LJ  0.32415864104620379   0.075818280447102884   0.24691855511028346
LJ  0.21109368094815964   -0.37425076599138407   0.35255688941607277
LJ  -0.1845884073936763   -0.40090387935149641   -0.3471421787102027
LJ  0.44130547529667574   -0.2633655496455512   -0.17573304129968229
LJ  0.12099774700640957   0.039013939376820288   0.29598278804684713
LJ  0.49330704481264431   -0.2274420301465562   0.35347386429988259
LJ  -0.39041427654988647   -0.36410815207822739   0.19372639028773822
LJ  -0.013422157866816956   0.44915068917633871   -0.2475172919919211
LJ  0.29095034201835479   -0.21055419528222599   0.02823028052838799
LJ  -0.48199655168567657   0.20613846479740744   -0.0099764668703851336
LJ  -0.48687512130164429   0.12688578688809704   0.2008920552510948
LJ  0.45267481650466812   0.37295181080434131   0.12193972852095128
LJ  -0.1048641546059193   -0.23894455310304671   -0.026189171721279346
LJ  -0.11022920071860877   0.36982132597200879   -0.42269067463885257
LJ  -0.22443582129703879   -0.40308893249040639   0.037220622963063325
LJ  -0.43921331500124378   0.45773815921528044   -0.097684814130615513
LJ  0.051482960773001595   -0.4148405777281004   -0.36154869238193788
LJ  0.25667589893176634   0.23233146682040598   -0.32762940458497969
LJ  -0.057890142600299226   0.49440686425774327   -0.023148289427764951
LJ  -0.28481536853008144   0.24423443418991583   0.26025297368442413
LJ  0.24236735233994808   0.25045969095018533   0.30556736430139514
LJ  -0.379234667184977   -0.38964908864206405   -0.24905974260947844
LJ  0.40845168293998296   -0.41427338715408862   0.27319962182857577
LJ  0.49693849843427973   -0.10096047991573828   -0.47910013050798178
LJ  0.067191568203446586   0.22458977047086368   0.42385922970518847
LJ  0.083413229649363346   0.39773960975729261   -0.41601270917205291
LJ  0.34312365276467766   0.17439259570844867   -0.1185507943461778
LJ  0.31339995168540663   -0.26024474456391633   0.48356100251543893
LJ  -0.33738049986222546   0.37092959896194921   0.10319937186486876
LJ  0.011781459867089434   -0.26109814976700713   -0.22507447264475328
LJ  0.27603041800026479   -0.37485369845536309   0.12660893239985002
LJ  -0.2903001270839396   0.044863178438389335   0.22563831108364649
LJ  -0.12953054789777282   0.35083832959947009   0.17015096275514902
LJ  -0.45632538595134525   -0.043108861133739421   0.32377673307638549
LJ  0.46578340311062555   -0.42481011680074043   0.064669405467720112
LJ  -0.036926668343954409   0.15969525349433267   -0.41517502190293099
LJ  -0.0090236691616205743   0.25933657512693065   0.0014592566939591869
LJ  -0.093649685316542122   0.10420166794470766   0.25105829056205975
LJ  0.12939545651584911   0.43882141373423744   0.35744012912533235
LJ  -0.35685621924243599   -0.27584647322496525   -0.42403775745050659
LJ  -0.29729460555896936   0.49725063825120952   0.48144575243334581
LJ  0.11033065234269698   -0.1128960262349288   0.076160060482712552
LJ  0.19928680292853485   0.028040685303714886   -0.35601559310192488
LJ  0.047548763047357966   0.22739733881262553   -0.23488427502138412
LJ  0.1728273615095777   0.14201582088940473   0.124980160722917
LJ  0.20927520542252478   -0.29915132792630988   -0.31949529151556783
LJ  -0.10000310941865027   -0.28297194482127014   0.17274632480918109
LJ  -0.22562286702620796   0.12564239964244905   -0.35028601804470483
LJ  0.31790114079841647   0.23260440049615252   0.061058242531025507
LJ  0.15156916991448721   -0.11396027071697255   0.40378888767597615
LJ  -0.44718782268933222   -0.23839990759644161   0.028225447068707891
LJ  0.46195086811526292   0.061541895296560532   -0.20603387060856379
LJ  0.14206062051121582   0.066870239169170342   -0.16908781604774975
LJ  0.35416969937336945   -0.061259405111484887   0.38147504252597525
LJ  0.40919698671575772   0.45529068427697833   -0.39139777284873323
LJ  -0.27968934701904574   -0.19366652857522659   0.23399423303601524
LJ  0.078713560705785529   0.30955430563830588   0.17484870005888722
LJ  0.25120910597689688   0.10890303723376386   0.46912196108340876
LJ  -0.32580190787635488   -0.33698202444221148   0.37531124558344015
LJ  -0.11595563646279426   0.14696983402500996   -0.12974991644349318
LJ  -0.19549245833461767   0.10477380532681367   0.43119006494527196
LJ  -0.29028777679026185   0.28868122922575223   0.45609384945225445
LJ  0.45471980729074618   0.11606157970346705   0.45856315488959482
LJ  -0.1337970875698109   -0.22340402634340725   0.38373602599450102
LJ  -0.041774442944262094   -0.025694182714329619   0.47310957663742131
LJ  -0.032122722685888429   -0.43750821026828113   0.41670106190559086
LJ  -0.39612485903338046   0.003130882757812971   -0.33939421838299
LJ  0.48977380736745818   -0.42214247323116971   0.45934755535235161
LJ  0.45412856000415242   -0.082067389759557116   0.14380375147919441
LJ  -0.3174604718005164   0.11020107807490109   -0.17730129415737741
LJ  0.078802253938607167   -0.32211754549005339   -0.03233055916579719
LJ  0.25555565469136154   -0.15763092386755975   0.22930353058961267
LJ  0.028141713475802296   -0.1146910560008249   -0.10359757996097063
LJ  -0.1654107314209538   -0.063370551900658115   -0.08427081314487149
