108
#Comment!
LJ  -0.31665868483015475   0.31231496161919886   -0.26630013164985056
LJ  0.43067857038465118   -0.35115275580248784   -0.37820309179639189
LJ  0.21662542839344057   -0.14617343095878699   -0.16403092348998885
LJ  -0.42208411162807502   0.44637562629772592   0.31625735043578479
LJ  -0.23607939557308089   0.13591619080357467   0.052841528270709918
LJ  0.20342958719677418   0.49552056481510742   -0.26624535918969233
LJ  0.36584692995763823   0.49048576913374159   -0.1177802753808843
LJ  -0.079610335844851818   0.35515838274801975   0.37616521864265812
LJ  0.31115987367838116   0.43622066614479671   0.41027889866065093
LJ  0.34249856287467284   -0.10512743952519758   -0.34786692863132862
LJ  0.27172862624422128   0.42843611381518754   0.20992909087144812
LJ  0.19596399986826957   0.30585580763804432   -0.12915975003630792
LJ  0.049215973923174984   -0.12352875479390366   -0.37517803701121788
LJ  -0.2278668865532715   -0.48724871341698378   0.25911063944568652
LJ  -0.38623288326176253   0.011699187803642989   0.036642353928044304
LJ  -0.064935095931456036   0.028429098173325056   0.069668569161238453
LJ  0.043186964008848597   -0.25836262576171054   0.46957227429726583
LJ  -0.39176041803379813   -0.129188662440511   -0.11158120363491
LJ  0.24282890020360978   -0.34352724381923128   -0.13151333554496558
LJ  -0.47905994825830628   0.24933761829763135   -0.41920142280133288
LJ  0.1377007129266444   0.48252226604174187   0.066819697669199929
LJ  0.44993295731449323   0.33959013331071136   -0.21774330980146658
LJ  0.25281767367263197   -0.0056659128855379515   -0.00068120443568818001
LJ  0.23424059758963392   -0.44232451206024309   -0.46365662665499385
LJ  -0.21839377150892381   0.32472468157043377   -0.027659135330556361
LJ  0.43588977959096986   -0.069232792183760439   -0.0501364140774068
LJ  0.084892250768034513   -0.24165236550518221   0.23552011693980865
LJ  -0.020233059012111081   -0.46678712074845558   0.19501409158051458
LJ  -0.043438900447929057   0.0033515799241143939   -0.27009511001138375
LJ  -0.22343709652164953   -0.48856791945836753   -0.15011030537013412
LJ  -0.22734449873117135   -0.24161195814554368   -0.21484452132633655
LJ  -0.033232805119633682   -0.09126948214076229   0.25823637113963538
LJ  0.45541852904002927   0.27863612605229654   0.31313082545624682
LJ  -0.26997091489414698   -0.073009761742438645   0.45635541131364415
LJ  0.32454121894479665   0.075664389779850835   0.24654477725312637
LJ  0.21132077621325729   -0.37457314254201751   0.35250704060087346
LJ  -0.1843813341802763   -0.40082348257132511   -0.34670922260000714
LJ  0.44128345332599223   -0.26315118120320852   -0.17601688598304679
LJ  0.12091159372159266   0.038845804991009626   0.29586408766713812
LJ  0.49308510329902971   -0.22770519565966671   0.35364450999537966
LJ  -0.39035335046315606   -0.36373347630171521   0.19405460404491331
LJ  -0.013767373285505436   0.44919206198602446   -0.24752113605753029
LJ  0.29087989002618314   -0.21073282113221536   0.027935682736927696
LJ  -0.48212558123620308   0.20600785811795982   -0.010095795647464179
LJ  -0.48650873202809219   0.12712730327769636   0.20105345146286996
LJ  0.4527392412078618   0.37297926888223321   0.12198115513299793
LJ  -0.10469786343589398   -0.23863153916998969   -0.026202418524568026
LJ  -0.11043365586525991   0.36991202799900991   -0.42256425145314963
LJ  -0.22443495550881379   -0.40301691908374671   0.037398611952231577
LJ  -0.43907614614467383   0.4576461615253023   -0.097533441811296279
LJ  0.051489607406516966   -0.41474318562226659   -0.36162659175277934
LJ  0.25690274061717844   0.23247784739110017   -0.32723557979849593
LJ  -0.058014299191570091   0.49465836948816155   -0.02281934941027132
LJ  -0.28472955086333007   0.24455577618898536   0.25990451693220207
LJ  0.24233749506765451   0.25059032576991852   0.30576671574364594
LJ  -0.37914041513795271   -0.38975260697747044   -0.24928990046989086
LJ  0.40819336383427374   -0.41448696186116174   0.27320737060571765
LJ  0.49678242919832927   -0.10096477348426491   -0.47922414953201886
LJ  0.067466853900409296   0.22447949734911773   0.42395642394813104
LJ  0.083485778834748697   0.39760730433163227   -0.41574533791486606
LJ  0.34297982789645654   0.17421404881848354   -0.11894972509174534
LJ  0.31349492682723135   -0.26043087722799313   0.48373171849658125
LJ  -0.33772148174385136   0.37035084790874817   0.10326172077965168
LJ  0.011616219652295812   -0.26109616989946566   -0.22515277669965891
LJ  0.27591619276863716   -0.3749445672263001   0.12691268602729452
LJ  -0.2902825533932808   0.044404448406074611   0.22555035106044738
LJ  -0.12936397804023836   0.35110021005991454   0.17020067676553358
LJ  -0.45670112424339299   -0.043035177180134762   0.32388343181830553
LJ  0.46550084870039343   -0.42527981346554244   0.064500391032353221
LJ  -0.037066445355198319   0.15993648536131749   -0.41526798515871693
LJ  -0.0088883206142856917   0.2592060606779058   0.001492896880993466
LJ  -0.093856354632156858   0.10429590480467679   0.25142966210873291
LJ  0.12956222711169635   0.43879807097880635   0.35733979513742153
LJ  -0.35657311728677582   -0.27594392539861518   -0.42412502268666541
LJ  -0.29734096562278928   0.49713062649736783   0.48161350390200314
LJ  0.1099750680921103   -0.11307922974505906   0.07578570891541464
LJ  0.19916580554380928   0.02815660571668464   -0.35602233205968015
LJ  0.047476289998077334   0.22731694046562093   -0.23483883559463065
LJ  0.1726378107405494   0.14240317159592986   0.12499140613510269
LJ  0.20880064306687773   -0.29915340768623799   -0.31951337938290564
LJ  -0.10018183908684776   -0.28293666535484546   0.17279386699884819
LJ  -0.22543348315072498   0.12583435968086445   -0.35019850954677567
LJ  0.31793594155911881   0.23280106846816345   0.060953836120984969
LJ  0.15166286524497155   -0.11369303972071393   0.40388029412393495
LJ  -0.44732939329203353   -0.23820305334541753   0.028264201688646618
LJ  0.46204421876660362   0.061506136262042772   -0.20579633349700538
LJ  0.14229230714431101   0.067078761708617901   -0.16876278163397704
LJ  0.35424556151031988   -0.061376321312298324   0.38122632388539618
LJ  0.40931311172350587   0.45529242577732126   -0.39097387676742612
LJ  -0.27966359339719588   -0.19400117075423379   0.23377680456754374
LJ  0.078904872896377196   0.30974923230933354   0.17438223281742873
LJ  0.25133350491452228   0.10882739548881006   0.46889752447447641
LJ  -0.32591230017091793   -0.33687033831027835   0.37510211768041668
LJ  -0.11576931308362307   0.14692941123964978   -0.12950516578580201
LJ  -0.19511895044226804   0.10480254631668448   0.43101051436158472
LJ  -0.2902367380352211   0.28862877111383578   0.45604302759277221
LJ  0.45482687794836524   0.11602326442519499   0.45875444326603776
LJ  -0.13386841159344012   -0.2233794329381649   0.38395732893128748
LJ  -0.041595959899811977   -0.025754328917204684   0.47318448039369726
LJ  -0.031944500554594739   -0.43741375532381205   0.41652128113639969
LJ  -0.39603389211710527   0.0036676515797118849   -0.33931085718228948
LJ  0.48989489113063839   -0.42215269768497743   0.45947737661522908
LJ  0.4538946257269974   -0.081992227432618234   0.1432951994328911
LJ  -0.31751076327213662   0.11020931321405487   -0.17722888430882938
LJ  0.07896599758828815   -0.32218596170206498   -0.032478034382351119
LJ  0.25584443663649215   -0.15750555669648264   0.22940274804670358
LJ  0.02820912129002872   -0.11438477934733317   -0.10381560974906118
LJ  -0.1655741161864363   -0.06342329558788172   -0.084467681906650049
