108
#Comment!
LJ  0.17933370275353558   0.27458560614432925   0.47660898237509158
LJ  -0.42323379880080453   -0.43687571716419343   -0.10385354011009712
LJ  0.48613595291409212   -0.11650323163773194   -0.36741338263381296
LJ  0.010725655712694744   0.37246384877503419   -0.39249802824836144
LJ  0.033440788563046865   0.39346361016166054   -0.13087802374317684
LJ  0.16099002058154549   -0.3096959480911794   0.2775317751076975
LJ  -0.027723744672061876   -0.44876259240943001   -0.27644838548157591
LJ  -0.14845454820287388   0.31530058778508091   -0.1822031751308083
LJ  0.027470743705523517   -0.2870603008801767   0.43223593417889844
LJ  0.3966613960570019   -0.34117689827006836   -0.38586402596345659
LJ  0.29297219031652155   -0.084199287151083407   -0.30889341744103704
LJ  0.39393987873505398   0.39418530783873701   -0.25921128431943241
LJ  -0.29267172377686501   -0.062381011700558889   0.24754484566756194
LJ  0.015674010043502832   0.18406390811635767   0.17981970784887896
LJ  -0.44360315675662215   0.096673066271142249   -0.38987740448060931
LJ  -0.061983104754557344   0.025091724233748544   -0.29292290009063926
LJ  -0.20106729120216252   -0.3341659970318277   -0.27549816654645398
LJ  0.027331422350025471   -0.11719960591119491   -0.041077435330611825
LJ  -0.25555854934659816   0.075944558603400103   0.38914226839828781
LJ  0.092106837046070686   -0.16761551893428744   -0.37440689352275203
LJ  0.17749180041725229   0.086529751091307047   -0.3870746819364283
LJ  0.26278672889768495   0.45961658047709864   -0.42375546777799805
LJ  0.27670056678427424   0.026166572432464889   -0.061696427527810835
LJ  -0.42529565069013509   -0.3035096415375152   -0.24947931445403027
LJ  -0.42101378604181633   0.28038175201672022   -0.34850497844864842
LJ  -0.46691593750985316   0.4050794181744809   0.49577422565666418
LJ  -0.37315737101565244   -0.33792001651535136   -0.42950081997697509
LJ  -0.26636891712637062   0.35449416474085843   -0.44598442306700287
LJ  -0.12201310547947607   0.40039491607683964   0.41509720781418113
LJ  -0.011830960761993175   0.18193420869306584   -0.48252457906496465
LJ  0.08968393339286608   0.47883773624045251   0.41697141331966453
LJ  -0.070667977124743264   0.0040482125773310075   0.28643734249877245
LJ  -0.029992668749182966   -0.034091738907229177   -0.48759106205695157
LJ  0.13897220943204669   -0.35197929790021915   -0.38542707362904527
LJ  0.06381688668032745   0.20144554710805523   -0.18923918429115391
LJ  0.39977965521264464   0.098750959627845719   -0.28498540592116117
LJ  0.44286686857839408   0.48125292430531402   0.20018382020416359
LJ  -0.31772801433386766   -0.1472357709373556   -0.34512326400342724
LJ  0.38951294956922528   -0.36108546513377726   -0.14815183656722866
LJ  -0.25300647671294713   -0.29574170330611305   0.22924364665745367
LJ  -0.23759138662643844   0.43629840494445338   -0.066890672882608665
LJ  0.21223923342250359   -0.25212765724857866   -0.17112967632481335
LJ  0.32108676574243084   -0.46844132981865766   0.043014013230155787
LJ  -0.26073137848200706   0.47164281924977414   -0.26013840007555711
LJ  0.18729352245730072   0.32548220259457916   -0.29242111552998229
LJ  0.11175648364887809   -0.064417940711449337   -0.20124466505375976
LJ  0.22777450160842616   -0.4645223373840256   -0.25124355775939133
LJ  0.22965930252336433   -0.4866352802179551   0.23873438602290786
LJ  -0.47010020426340426   0.082798187413364824   -0.086471140421185755
LJ  -0.3961913753388957   -0.046692151030370659   0.47363078722330504
LJ  -0.48391858167908774   0.11555117566867674   0.11461335193923375
LJ  -0.3296748508992427   -0.059732573699978274   -0.025194121727007749
LJ  -0.47938385194098759   -0.09506489675186694   -0.18131751395266865
LJ  -0.14111560626913133   0.066199541319617902   -0.1061625924259226
LJ  -0.18253193574344831   -0.14092447203633865   0.087741154560499718
LJ  -0.22860924980902278   -0.18930202349664013   -0.13368211860576187
LJ  0.35461537262132581   0.2021699229098666   -0.11500691604687924
LJ  -0.30604649951326818   0.19771187916505351   -0.050201927437627261
LJ  0.0087187650279960307   -0.25083575539911523   -0.1840956785722476
LJ  0.44230216856122262   -0.11086153303470617   0.11939529726947354
LJ  -0.41214874570101639   0.36269406211686378   -0.16662180251532274
LJ  0.45899599788005901   0.30341915058293917   0.010282638477946712
LJ  0.35107313427632653   0.24955498796273004   -0.40581026255420632
LJ  -0.29921206913058507   0.020182939027416382   -0.20369656797259211
LJ  -0.073396478168055904   0.27599859411371941   0.010671253447395425
LJ  -0.22391772197426749   0.036383142732431178   -0.41164222275140622
LJ  -0.14671027668117953   0.40110929092936509   0.21704916709489344
LJ  -0.27505903370405826   0.13915305239199716   0.18585471292511149
LJ  0.14097107253690017   0.30714881450912151   0.02517342622085194
LJ  0.25718448585606657   0.39667244634845783   -0.10389020861986537
LJ  0.26147648174266191   -0.27254177247982142   0.023882734511199301
LJ  0.2952450701065541   0.33708792533658216   0.1626149074573576
LJ  -0.28052909159840494   -0.48575495685621539   0.39237749100461938
LJ  -0.28561489518072047   -0.30207234624051682   0.034608424462380084
LJ  0.3304451406345067   0.40678170749556603   0.3683631535503642
LJ  -0.49703325601641513   -0.35097045722950665   0.087734916881244726
LJ  -0.12769787163841836   -0.41907381926520587   0.13237564920673509
LJ  0.16229856801799961   -0.41944803794976204   -0.067708756293863179
LJ  -0.12693575123988432   -0.37698051782873082   -0.06689895916018046
LJ  -0.23480422620006783   -0.30212228610042269   0.4417141618452784
LJ  0.069579136377385525   -0.13537725384183011   0.23556932293117855
LJ  0.36433924938952711   -0.24272371759248429   0.27329915638006935
LJ  0.30206071009344787   -0.39654566865172558   0.40719152379323048
LJ  -0.46323602183708562   -0.47654512305400254   -0.32419004950009672
LJ  0.45406490725898985   -0.031019475852472028   0.32940406227961555
LJ  0.27134011768721361   0.13395325777718667   0.12495104704296026
LJ  -0.42875909401341367   0.22818096766774607   0.4430405888807431
LJ  0.37629139844551973   -0.20554185341743977   0.46559879688030653
LJ  -0.49392770617849474   -0.41234365036513365   0.4145907398061025
LJ  0.15762460622436286   -0.06015416466746952   0.42880553048078035
LJ  -0.11482573763934628   -0.17988339477270651   0.29005062318976432
LJ  -0.11431328228336969   -0.18305957987121199   -0.39965652547666819
LJ  0.049958463962458823   -0.28551379417340345   0.054097328034324224
LJ  0.23014768375988354   -0.10525214618462811   0.12845911520500417
LJ  0.35564068875440319   0.033329774075404411   -0.48295460273829904
LJ  -0.44436138604623227   -0.23316905498111548   0.28349453134268848
LJ  -0.33618410052237563   0.45279660419372475   0.15199145506472694
LJ  -0.13206073361219367   -0.4741289100875396   -0.44979846864007617
LJ  0.33216790551815578   0.17170976851643058   0.37478698330675514
LJ  -0.31083084866432487   0.31603023963820565   0.31867221484012381
LJ  -0.12254500984958135   0.053709970376440333   0.1053906673328085
LJ  -0.11402671365268374   0.20525086744710355   0.36059310972174108
LJ  -0.044341899386250105   -0.4401703615505681   0.30654758065056209
LJ  0.098248250025396916   0.053788536127585891   0.04395496935259903
LJ  0.12610902045098951   0.32679077525082384   0.2773608220110903
LJ  -0.48645775570033295   0.3032028431113073   0.21577576057634873
LJ  0.058225137746450821   0.48198925423081795   0.11960743960381068
LJ  0.15105463357196014   0.11968902181963692   0.31496571278703778
