108
#Comment!
LJ  0.17411200963283166   -0.086534135142920174   -0.45619946536893363
LJ  0.0082783934276028301   0.054518762790057004   0.2935504365764795
LJ  0.27243050491410392   -0.47848280373544783   -0.47199789483985327
LJ  -0.35356337853203024   -0.47505008792570608   -0.39902363218179332
LJ  -0.11763844374636176   -0.45308634816678739   0.050534335666293458
LJ  0.089059463369976929   -0.084919138499261942   0.14029809894202921
LJ  0.4963721550441435   -0.45006726421542542   0.46035377282643708
LJ  0.49028167961843638   0.10340686883902404   -0.10826709924492428
LJ  -0.012631640350958906   -0.24817750402356714   -0.010039229227639839
LJ  -0.26642991102771174   -0.47722587638060682   -0.1346264094687955
LJ  -0.40299439190217684   0.45379277113145039   0.17147713734699185
LJ  0.10170816109860784   0.1268083990819438   0.074803842430534562
LJ  -0.33710283596341806   -0.053999149065982736   -0.36270057457782306
LJ  -0.079908914916688015   0.45450078672755267   -0.15099692208057947
LJ  -0.31113233456673772   -0.084295030071659866   0.24191588254951846
LJ  0.12769799733339487   -0.28444984134006884   -0.18123518327250876
LJ  0.27560855271626866   0.088891188255870252   0.4908846241848383
LJ  -0.018373365496618749   0.31915425365068589   0.0024309205552399465
LJ  -0.25362793587865423   0.47805815297455201   0.41105165262035087
LJ  0.024870127028736255   0.082603647785301576   0.48441636955799816
LJ  -0.038459548987662351   0.20952871492520495   -0.17086167359082788
LJ  0.38764557017221446   0.35177070597651855   -0.1173892527002775
LJ  -0.25324611880685305   0.32388771689169893   -0.048301412818378603
LJ  -0.050586246667663662   0.27400843001424902   0.43781749113471208
LJ  0.36291852906268751   -0.28939686519664409   0.41229482014520347
LJ  0.48537383787394955   0.084696789264030209   0.23640042662738137
LJ  -0.058960329480711213   -0.37694760434486618   -0.31842694006559885
LJ  0.12647814845995486   0.42988482110252552   0.17561347515748071
LJ  0.18265035765428173   0.14589068176829501   -0.22691406737892889
LJ  0.019014701354323992   0.024463175562118793   -0.078257910898175465
LJ  -0.48175943115599573   0.3037471594379797   0.29298735391149439
LJ  -0.21680321677570227   -0.073272392289613367   0.47606047706484989
LJ  -0.091928741856261098   0.42488798009459144   0.31045923949057391
LJ  0.22018302597908873   0.34163053560768369   0.0054681446885985275
LJ  0.24321605089862203   0.21819436664674419   0.20077358160186826
LJ  0.29690903384192563   -0.28613497115290587   0.011919921642592556
LJ  0.20653973094987543   -0.41381223715488696   0.35348242737493685
LJ  0.31900440588674511   -0.20710778567073573   -0.2102649131127278
LJ  -0.18963161998404116   -0.048690297449048674   -0.087821245220820798
LJ  0.43920754589175515   -0.3637142328025702   0.12720561611599282
LJ  0.44601538287479908   -0.080636422045876066   0.49885255726242766
LJ  -0.39305606817890026   -0.07477771121122663   -0.11421260308589884
LJ  0.325177865120862   0.46767122292058111   0.26248704277957335
LJ  0.085070454390992228   -0.45576852836062348   -0.013478844531700665
LJ  -0.029825627290613312   0.23153377000169198   0.223813358712532
LJ  -0.28029347006757083   -0.41082084384070577   0.22473029965884425
LJ  0.38980331486238212   0.33948184981169938   0.12977723697201132
LJ  -0.11865533038446337   -0.27177354362139988   0.17588850956585614
LJ  -0.20687385879368739   0.3768389256184958   0.1668219635372343
LJ  -0.21164415822175428   0.10299843409450769   0.23928251376525178
LJ  0.40648709822151136   -0.31902854030456124   -0.38457922773262226
LJ  -0.32676078028651045   -0.29595539951622751   -0.26477422421161539
LJ  -0.15016279063815388   -0.18476992279693766   -0.28981077559449753
LJ  0.13642332695823139   0.21746277780165366   -0.42385966159446137
LJ  -0.040683158333159407   -0.15206392567627838   0.33086107665999076
LJ  -0.22229346689580723   -0.24276792382891363   0.38109124333580274
LJ  0.088892478645611256   -0.11424059875945038   -0.28413246589727875
LJ  0.10710903494574468   0.48913778416595921   -0.34912071356360275
LJ  0.14735783521487839   -0.21951239160081787   0.42338387638095532
LJ  0.1765278007891406   -0.35696949622477586   0.15589991291921754
LJ  0.30151780686683044   0.16473637502343316   -0.034047669700981643
LJ  -0.34282618629883344   0.059643907957052066   0.38666783604586141
LJ  0.33538935523487201   -0.48680824394392996   -0.25875804948858167
LJ  0.2927253118700372   -0.20807984350548708   0.21264351303283258
LJ  -0.40371490722850184   0.12590429462584068   -0.32818824419087606
LJ  0.40866733534346927   -0.083498929071815942   -0.012746756993346526
LJ  -0.067104840565314905   0.4657196545378009   -0.47210243104490224
LJ  -0.44214353896571562   0.45666701915310332   -0.22723817156949142
LJ  -0.3766828899899658   -0.21553272078871652   -0.48309274570690292
LJ  -0.49556541940159293   -0.1542924785527664   -0.28446824905332352
LJ  -0.16969494007777577   0.043796524501394998   -0.27261629953746314
LJ  -0.47431955297130357   0.45819441574100667   -0.014431720569796146
LJ  0.24758986938199559   0.31947896406209642   -0.28384379400095022
LJ  0.45022060250486096   -0.11330385109403875   0.28877625850462701
LJ  -0.35846234701787866   0.032143123262224738   0.096555330872961101
LJ  0.15701729780141377   0.24813414418303142   0.37957240251880259
LJ  -0.45592984533447661   -0.20466584143979516   0.10240308700425302
LJ  -0.052162574470297679   0.3126612337977005   -0.34754656497183073
LJ  -0.4956918095342564   0.16537192903171122   0.49982564703278703
LJ  0.23674903558946581   -0.018908089170331963   0.29935886394052147
LJ  0.39392909265786941   0.16499017589360662   -0.28407408582473948
LJ  0.190268451502939   -0.087778959372846993   -0.054083010757942612
LJ  -0.11219625282432187   -0.047815103372755303   0.12912193216324383
LJ  -0.4148151399043154   0.27698957660638723   -0.17276073129312372
LJ  -0.49791354321644438   0.37236295525812069   -0.39867239369551311
LJ  0.32501014308103515   0.033436210254505203   0.12996908855025815
LJ  -0.32764832019097284   0.23203529848274879   0.1302713562910445
LJ  0.4918604231460536   0.19286008914815739   0.058912955260531044
LJ  0.11474962005254602   0.37499678625096061   -0.16854255831595691
LJ  0.0050845739914359058   -0.40735668429575422   0.36099636013223951
LJ  -0.27220387053237399   0.27085187941123695   0.34538224848270072
LJ  0.11893448923275349   0.42648134197982895   0.42129148131998834
LJ  0.35801192459655395   0.31337183195052154   0.49395002497544405
LJ  -0.30004711804319978   0.12354881128565202   -0.085016022287063703
LJ  0.34202626450612056   -0.006304137977602162   -0.21740855975220927
LJ  -0.19796333822240192   -0.35113705261822242   -0.45265770790577009
LJ  -0.18632431822663501   -0.25758829965577446   -0.1073754621712327
LJ  -0.014253401219645292   -0.18674899516593615   -0.4733638441396788
LJ  0.31521993660296177   -0.48242035401496247   -0.021772893546834943
LJ  0.13196843608787565   -0.30538925168098768   -0.38652013494285442
LJ  -0.24732961245180032   0.33020006682483105   -0.43808349121561163
LJ  -0.25694517558022117   -0.17309441069620252   0.055135349779170076
LJ  -0.34859494478662856   -0.37452556920645541   0.011560933417117033
LJ  -0.20165724962317394   0.14218680467657024   -0.43642604189601364
LJ  -0.14566465320462382   0.15302230395858907   0.027599853999254981
LJ  0.49941736598745223   -0.34894000765317829   -0.16014991399814171
LJ  -0.41231010487697139   -0.26285287691614717   0.28603418804681524
LJ  -0.24505040719724097   0.27983943983011611   -0.24166683207123682
