108
#Comment!
LJ  -0.27136959632881358   0.36644249441584981   -0.46754434354305979
LJ  0.24514613120464673   -0.28403895652638356   0.45219901275249164
LJ  0.017257603219340344   0.27104055690683915   0.22838434038770486
LJ  -0.47626009414313081   0.22749465873887134   -0.44608762114847333
LJ  0.45087842438417292   0.30304950783331347   0.064036040142423742
LJ  -0.1882391641181326   -0.32762084007875497   0.37638383547909904
LJ  0.089568410392392175   -0.2795660939767165   0.33948326945528545
LJ  0.18660047303238131   -0.016076638550901107   0.0033885193364690037
LJ  -0.20159562880143109   -0.44368618537033588   -0.24868532269167984
LJ  0.10246764876789662   0.20162305473859801   0.41843790487692617
LJ  -0.45479215629501002   -0.44237577397712757   0.46535314213905565
LJ  0.19290619104170731   0.24673322658917665   0.11690531423416985
LJ  0.10608921923287055   0.1781427505805287   -0.077885316160151166
LJ  0.22606370047904498   -0.41083661316511161   0.22406958065392571
LJ  0.36610306972263001   -0.30802033733902912   0.10231361213059625
LJ  -0.02839689785585674   -0.14190660690684795   0.012853158055425109
LJ  0.40715000055083123   -0.36012369397614474   0.29612136379615511
LJ  0.19039891544613882   -0.22773754603848698   0.060672776343959955
LJ  0.021468392032366061   0.074885045744387993   0.078650550521400478
LJ  -0.054527680258682938   -0.24094022420665492   -0.48025880877557597
LJ  -0.48845460579612865   -0.19600849263663134   0.37365182571759886
LJ  0.29484833740329325   0.33020430745661394   0.29072166935310229
LJ  0.45725942403652603   -0.011174513194554259   -0.054286172192448842
LJ  -0.159033876485867   0.36604835511598605   0.28166108999314154
LJ  -0.33385277523367091   0.18962064990404645   0.41659212966680459
LJ  0.24194938030769611   -0.098492765767496368   -0.40365668396447585
LJ  -0.083609343922426721   0.42587151854192434   0.10441643980528144
LJ  -0.32377281972634286   0.29443568117553875   -0.20395197157655193
LJ  -0.11191304840164723   0.45136602404351839   0.44117614264647576
LJ  -0.19410879383089394   -0.023736886043463846   -0.35372618810958978
LJ  -0.32542862429339653   -0.38099469853426721   -0.089772504080607315
LJ  -0.16612701054040699   -0.081104334145719256   -0.10464254694215838
LJ  0.19563654957710244   0.49466660565585785   -0.37666717895898194
LJ  -0.24051188706519025   0.40112378014243133   -0.047147990215326376
LJ  0.3045806822319701   0.15054819697456998   -0.035075235474084455
LJ  -0.022366393474373698   0.068304549804330567   0.27357544663908978
LJ  -0.45716019396545482   0.025003462192393213   0.49728035200434717
LJ  0.0583832074635331   -0.12272420216453557   0.20564098366594127
LJ  -0.36411528705462154   0.36802692955927258   0.11482412871231153
LJ  -0.012064345610002971   -0.46807277763132016   -0.072613892017025727
LJ  -0.40330959652078036   -0.05621940042256969   -0.3170631199620581
LJ  0.48277397644605424   0.24353349782843448   -0.12668876169888038
LJ  0.30162572520076941   -0.47280526424003366   -0.20742561663371809
LJ  -0.47625690238508767   -0.4484925089757309   0.083184807248751699
LJ  -0.41285912761004728   -0.17947394265000766   -0.1578398124573428
LJ  0.0037465809887153225   -0.47945288619642557   0.28805919089087423
LJ  -0.14071894052125256   0.17090877917872679   0.37402311493887708
LJ  -0.065459534230040015   -0.16832367193299685   -0.26074490456242611
LJ  0.1496531575791829   -0.1211034351370707   -0.22836893417791104
LJ  -0.1515010623201539   -0.28068680174812066   -0.056243105866257706
LJ  0.15676826682352601   0.065597943071852516   -0.26171208783207239
LJ  -0.17011812676222046   0.17742598335548393   -0.22411775123576566
LJ  -0.26897736507698938   -0.42764232744611252   -0.4787934376937476
LJ  -0.090823013767317523   -0.088295294726659854   0.40038319630787383
LJ  -0.049947020128625945   0.2745607855936793   -0.010772328724957175
LJ  -0.15383464635812019   -0.038195538005323618   0.15345155181470679
LJ  0.22439441746077729   0.12480382415175702   -0.42905690292046433
LJ  0.028232547710571019   -0.013349834355604983   -0.42323526629434927
LJ  -0.30297400116132261   -0.12239242876605214   0.26479207619921663
LJ  0.38219667340863916   0.33886407965403315   -0.34736055968642621
LJ  0.16667355573258519   0.37069551854240573   -0.041999635366627354
LJ  -0.11030227872776353   0.36904432247477487   -0.31552443589093832
LJ  0.34751877634389078   -0.1072537125070178   -0.22543648792493032
LJ  0.30618938593513739   0.44276090054255363   0.096015875443908841
LJ  -0.48800387410887952   0.45021201486343204   -0.093174340331962494
LJ  0.24924381821611413   0.26245381160574249   -0.18214445286223149
LJ  0.24958673596323872   -0.28230302617643005   -0.15695250291538565
LJ  -0.059178313181712953   0.19076854684160685   -0.40937682157840832
LJ  -0.49986337388362595   0.39060862310664002   0.27173871022055163
LJ  0.099440105905746368   -0.26629578528401232   -0.38191600164751771
LJ  0.35399745187077564   0.0020423893534682672   0.16799437721773597
LJ  0.046952693163813106   -0.28267560055869539   -0.17302964100410217
LJ  0.26056056479995066   -0.19246292019549394   0.24492872109178493
LJ  -0.41339999670476629   0.48153479786498354   -0.27689449120531701
LJ  0.12762827038963864   -0.049494334853285651   0.40039276305679261
LJ  0.2788753484263683   0.49424065491834102   0.4454846143880441
LJ  0.44834016215511352   -0.15471373708290689   -0.43629228255627023
LJ  0.086188108120098347   0.42684373968836958   -0.22636486988475793
LJ  0.49722438090766069   -0.17231210256791268   0.14693570087981694
LJ  -0.30198261162648199   -0.18157485648177438   -0.48209438388744447
LJ  0.1242621673598585   0.40245080661609556   0.38690628065482219
LJ  -0.24962833390485603   0.0052838052316954171   0.44134433286589503
LJ  -0.14080405245163369   -0.23459624825714204   0.20074899844335878
LJ  -0.32353208935485744   -0.2790325069724916   -0.32470511044442957
LJ  -0.28099890720311055   0.47971605682270108   0.36238164746903684
LJ  -0.21256504543541913   0.16357073857971263   0.0063691421854336731
LJ  -0.28976143711062485   0.16355480173079517   -0.37952738462896657
LJ  0.44148716593367671   0.12942453802981152   -0.28200653895806144
LJ  0.44827153290032196   0.16826917498253077   0.26486693697606761
LJ  0.1150128790588453   0.42838311344800811   0.15451321440009014
LJ  -0.37385245416143698   0.098000293319428056   -0.17066068156559766
LJ  -0.32616338574529163   -0.1854451833344728   0.012486915181491252
LJ  -0.23540341874241161   0.12374927871701281   0.20417381390532741
LJ  0.041575749040930934   -0.36164825011315832   0.109554338332383
LJ  0.19870738048020226   -0.41956352762690741   -0.034092554523712362
LJ  -0.013687363292151566   -0.41970060056397401   -0.29817938589764853
LJ  0.34205513048978942   -0.063629558928912033   0.41614783912173947
LJ  -0.23240945000558721   -0.41936096085570518   0.1527643917066718
LJ  0.13783945887287008   0.30368980584972194   -0.41196734717260675
LJ  0.46634267758618247   -0.37267850420121335   -0.20072079979416924
LJ  -0.39613979790345372   -0.32509659516128991   0.26839307065996221
LJ  0.42351864558736441   -0.21057078867051771   -0.049837329239894729
LJ  0.19703910762697729   0.11435363214996852   0.27373128493875892
LJ  0.35593553920080306   0.22562842522236484   0.46123093992703579
LJ  -0.46742628860378471   -0.010813884415456965   0.29162188121317018
LJ  0.045702721296076339   -0.44074619861902042   0.48551063712885068
LJ  -0.015897153579136444   0.0084099965750853035   -0.16964119838980726
LJ  0.33516255482902818   -0.33237563483623944   -0.35495995692295079
