108
#Comment!
LJ  -0.27152195675616203   0.3660498811936635   -0.46760508096972891
LJ  0.24500452356549773   -0.28398047423211564   0.45194504861520191
LJ  0.01691842835904802   0.27128969651060686   0.22836467834201477
LJ  -0.47622692825575708   0.22751256934368111   -0.44605040794435563
LJ  0.45077740780544179   0.30310883630048924   0.063625986936026654
LJ  -0.18838187086752095   -0.32757410705426354   0.37628390188708832
LJ  0.089563166945978503   -0.27928756551400896   0.3394870561149736
LJ  0.18693459802412737   -0.016159504762442177   0.003719827608606402
LJ  -0.20137324844357254   -0.44374552327976613   -0.24879920398805597
LJ  0.10207720104211407   0.20171188471223922   0.41852216047330926
LJ  -0.45425892686327135   -0.44231193251611534   0.4652180086540178
LJ  0.19324379391059321   0.24673831770936966   0.11709591561936881
LJ  0.10603370686186415   0.17818499783245287   -0.078171908997956993
LJ  0.22595421739859325   -0.41092357405967672   0.22397617069434808
LJ  0.3660669882387948   -0.30832513567046066   0.10232742507342481
LJ  -0.028324319747316837   -0.14197915495041355   0.013160050313818271
LJ  0.40743290349623251   -0.36003230123505697   0.29612328329692017
LJ  0.19030082260633968   -0.22784489806679026   0.060509484351457338
LJ  0.021383764995759478   0.074980724036526517   0.078325836404618848
LJ  -0.054882729398162564   -0.24106100802696767   -0.48023314094067099
LJ  -0.48819032315479   -0.19613369977101422   0.37357950219157915
LJ  0.29512241964025393   0.33023803538240859   0.29067531617637932
LJ  0.45725523099092497   -0.010794422964807773   -0.054442004229202347
LJ  -0.15889111866184474   0.36585388168860661   0.28172445639996757
LJ  -0.3339846133018381   0.18999551560218864   0.41684287214248333
LJ  0.24207585487805491   -0.098377155453205606   -0.40353002536182153
LJ  -0.083893088016371534   0.42588621317499553   0.10421326270219074
LJ  -0.3240898366849701   0.29434595939184244   -0.20400528790180517
LJ  -0.11193920009388236   0.45123938361286203   0.4409246484218815
LJ  -0.19411941783088968   -0.023822992721468386   -0.35361375591050642
LJ  -0.32533965061766762   -0.38112040912962075   -0.090025757095615333
LJ  -0.16618483881196527   -0.081138449869964172   -0.10438242175330895
LJ  0.19569807501945888   0.49481878883949421   -0.37664143543975664
LJ  -0.24067101723572876   0.40112811883769611   -0.046745312050484253
LJ  0.30434311926290708   0.15025369077902537   -0.035167799617440515
LJ  -0.022506414943555431   0.068467790285412444   0.2737710917051373
LJ  -0.45690280707494474   0.024963029018313404   0.49719419743865395
LJ  0.058916843487842818   -0.12261987642124501   0.20530012899080163
LJ  -0.36422167405726708   0.36774012215683938   0.11469709192453816
LJ  -0.012145949470724943   -0.46824349558418504   -0.072595576339588491
LJ  -0.40359176276832692   -0.056330497776234133   -0.31694707216417667
LJ  0.48297090115147989   0.24366640847298859   -0.12663514488101987
LJ  0.30153154293374096   -0.47294775552239343   -0.20743606639750067
LJ  -0.47624858325214453   -0.44850609220779014   0.083127225974803959
LJ  -0.41291478336934839   -0.17946515195297158   -0.15782487406689683
LJ  0.0038217063788062232   -0.47927420989964059   0.28830173827197414
LJ  -0.14077734149587043   0.17094125958900785   0.37369050158726708
LJ  -0.06514316055718275   -0.1683517062663917   -0.26062312995871162
LJ  0.14975021405626762   -0.121240251426853   -0.2285982894628136
LJ  -0.15196167029541191   -0.28052710188003188   -0.056221542735621265
LJ  0.15685591027560714   0.065700703308744293   -0.26145524897774963
LJ  -0.17016560298085437   0.17706289174631032   -0.22407238367221827
LJ  -0.2687470131449215   -0.42771152549998714   -0.47855975285885921
LJ  -0.09056941168052618   -0.088260268636643116   0.40029343141113266
LJ  -0.050239887422102489   0.27432217809895759   -0.010790808388138767
LJ  -0.15393070362030756   -0.038478806281391283   0.15350044861412393
LJ  0.22471780353194432   0.12487824649218221   -0.42893178110722902
LJ  0.028267749858791637   -0.013338844332248247   -0.42321765337671119
LJ  -0.30337210245403845   -0.1224342858895528   0.26471885266699974
LJ  0.38235913186288906   0.33884384327233941   -0.34732304848394996
LJ  0.16693397465151047   0.37099813586520952   -0.042029632430750509
LJ  -0.11049802078308935   0.36910501877785795   -0.31546983518408456
LJ  0.34770631473288521   -0.10745375476495898   -0.22525891412072507
LJ  0.30614762681359792   0.44269443453391044   0.095799323031043729
LJ  -0.48844750352875904   0.45026060291663994   -0.093139493269142254
LJ  0.24882187859349622   0.26279057305010772   -0.18208338558538201
LJ  0.2497311131292001   -0.28210678231086606   -0.15683267077653473
LJ  -0.059280762258867074   0.1909593875506081   -0.4091785675130139
LJ  -0.49986872628803003   0.39049460806839509   0.27164867882082261
LJ  0.099541916474908274   -0.26651482337755067   -0.38207005590258153
LJ  0.35413984871660176   0.0019802557980937302   0.16820997125062551
LJ  0.046898499369465219   -0.28245251159186952   -0.17326615134489412
LJ  0.26069009492493023   -0.19268577872445089   0.24506707882745593
LJ  -0.41326212949271762   0.48196026561536781   -0.27670790846530352
LJ  0.12779215326082435   -0.049222252714966448   0.40050000093187588
LJ  0.27922948480589521   0.49416200583482411   0.44578438070294474
LJ  0.44839135339374964   -0.15513809489654046   -0.43622709769001217
LJ  0.086432011865889363   0.42656938859597227   -0.22659234016997745
LJ  0.49712100443796287   -0.17214483545861131   0.14676206469192182
LJ  -0.30196968240301963   -0.18202597257498765   -0.48205461935338173
LJ  0.12450403638428463   0.40222178995485075   0.38648292515109356
LJ  -0.24949150111354279   0.0049428571001671603   0.44157953823576457
LJ  -0.14095456845755416   -0.23437910951110227   0.20051298830813324
LJ  -0.32358208562422902   -0.27885130813064002   -0.32471611667791356
LJ  -0.28093452357696524   0.47990561954228411   0.36255242210078331
LJ  -0.2123947238055918   0.16384052948917116   0.0064412514327508909
LJ  -0.28975388912325345   0.16332265352092382   -0.37931888837976824
LJ  0.44141204497580588   0.12946426958535118   -0.28203298747631761
LJ  0.44796491095373275   0.16811372040793088   0.26461944897808676
LJ  0.11489112972932526   0.42848323185696818   0.15443432690977466
LJ  -0.37391777884759092   0.098264896638259977   -0.17039299543674441
LJ  -0.32630492187299504   -0.18568742203418923   0.012866161829489435
LJ  -0.23540150756808478   0.12392772677045118   0.20414748786464151
LJ  0.041145913576111824   -0.36172502600201428   0.10935706746239035
LJ  0.19900517687519409   -0.41960681201239769   -0.034208104304399266
LJ  -0.013693982842487101   -0.41961886222867351   -0.29791861043685652
LJ  0.34196199795859344   -0.063820686914507319   0.41647505757604292
LJ  -0.23235782923279177   -0.41906040659436122   0.15223584209583013
LJ  0.13797093626097306   0.30372498595122654   -0.41213027204781971
LJ  0.46622388926264585   -0.37238450358094788   -0.20035789920537325
LJ  -0.39619424509609225   -0.32522025934698012   0.26808437690756931
LJ  0.42344520584941509   -0.21021930155281368   -0.050084405432204014
LJ  0.19714342976998656   0.11468179489182057   0.27392326249102561
LJ  0.35613026333511011   0.22537565367925128   0.46140568292171602
LJ  -0.46744838452858173   -0.011064970952806816   0.29160730857519357
LJ  0.045292350098841076   -0.44071978248474114   0.48561466473394826
LJ  -0.015823477932394109   0.0081714539360397843   -0.16962880672823108
LJ  0.33524559949289401   -0.33189338777613386   -0.3550052467048167
