108
#Comment!
LJ  0.21763020019849377   -0.1921197941628276   0.47363023719212205
LJ  0.25790236375416042   0.076172422249636246   -0.26024023538604601
LJ  0.12955421476921083   0.39623791105470318   0.057196202114422827
LJ  -0.47238329775927379   0.09391154057094897   -0.46598198739808316
LJ  0.31697321722270894   0.011625682857516901   -0.11852869350841903
LJ  -0.33140687396789748   0.43183963233048384   0.42407213291512919
LJ  -0.011474764425869907   -0.13442509137661002   -0.4800294538681163
LJ  0.31539271921107026   -0.17483571134452963   -0.22010879043189185
LJ  0.1240999559049033   -0.41853187387659457   0.0096275295994856895
LJ  -0.050348587883648592   -0.1476624687934962   -0.036132721396685691
LJ  -0.39047386801788281   -0.39426152379950768   0.29040069837061949
LJ  -0.22296582488267799   0.46971417488592521   -0.48264747840264532
LJ  -0.47917621094835217   -0.4648039158972288   0.16096410439948339
LJ  -0.19346933724743459   0.091170244035622294   0.19721159934525737
LJ  -0.041961880237571754   -0.2053121852357819   0.013893504047094623
LJ  0.22550977252880233   -0.13320601487000464   0.39104060317957728
LJ  0.22715555588136516   0.29095801127716275   0.29807273059424921
LJ  0.43623648896353412   -0.24826382364823482   -0.40215963009501426
LJ  0.45574461081500878   0.38030418259287307   -0.35618267945828508
LJ  0.044906725861762295   0.15610649929745538   -0.23426621039471707
LJ  0.47915074091840665   -0.43972337471279072   -0.24754087702862981
LJ  -0.21519473731433456   -0.046495652338370483   0.14909902934194766
LJ  -0.23276223013458192   -0.25067698604915573   0.21904241378577252
LJ  -0.30201722295025457   0.33855838002735439   0.35024848371861178
LJ  0.41590660516444361   0.11706048213399305   -0.29494033651480461
LJ  0.48777396815255952   0.32992916407943607   -0.072217141395093415
LJ  -0.43736728513075923   0.17929354882930401   -0.45674358512484753
LJ  0.42796093060962931   -0.14767858966250944   0.49273493906184607
LJ  -0.018812204190658398   -0.28561385493261066   0.054363088097386734
LJ  -0.44012340066598549   -0.28135135065333966   0.10502216491664963
LJ  -0.32370899359403243   -0.26692297012616517   0.17735458886056707
LJ  -0.18365551048583112   0.1599353243877189   -0.2887870151780294
LJ  0.46453860178487066   0.36093459031478115   -0.25588364910062933
LJ  0.13361426957136949   0.47999711770584935   0.3981298615347969
LJ  -0.27998806409705179   0.10037452259311283   0.3487741195811177
LJ  0.2366827872886012   0.12574749858805284   -0.46929199174576619
LJ  0.22012373404420443   -0.37983956585484174   -0.10117657618662768
LJ  0.42604439763111851   0.43879678589122179   0.37483885371901199
LJ  0.30701279837364126   0.37505582723569603   -0.17603200418309675
LJ  -0.13118734467706047   0.20061460218681293   -0.13383289220854747
LJ  0.26111544060144692   0.17806147068688713   -0.16747947150574899
LJ  -0.23149289188743977   -0.40900426036220788   0.24789821096279921
LJ  -0.028246136239871447   0.37679652175836581   0.26066167718037681
LJ  0.392363152961616   -0.40714871147574205   -0.25187826563643029
LJ  0.28339096918924161   -0.15546937011567338   0.18423058549611504
LJ  -0.0023855605776784638   0.39374384061747714   0.049235902385481957
LJ  -0.32745020589840135   -0.35439999547553547   0.37947350370697103
LJ  0.44459503417318663   -0.49314968579088636   0.45965923096421962
LJ  0.18320838913364088   0.32161734904067363   -0.076027211308470274
LJ  0.16692837931681848   -0.28896857335894582   0.065652880500834898
LJ  0.4104468665083354   -0.33299619480813436   0.0070039834683051465
LJ  0.32492854230545598   0.22281591490683811   0.12414422529688446
LJ  -0.47449621995804059   0.26670185333606683   0.079654304942594234
LJ  -0.078186036030460287   0.29382661430484847   -0.00063193369075026861
LJ  0.15540304464082658   0.45355655207182699   0.4748399651894924
LJ  0.011078661512340779   0.07948711399405016   -0.31374467593520389
LJ  0.44518995648579024   0.26093469157694549   -0.46526940859114158
LJ  -0.081821213788919073   0.22797624545733691   0.31899382005488469
LJ  -0.40771778360966754   -0.031641689468715296   -0.10041841326398122
LJ  0.35638576049063625   0.14282911985469249   0.12042679582707579
LJ  -0.47907673669259482   0.097279302531698891   0.23344061554836029
LJ  0.12317205451254874   -0.12482201322768945   0.48674478587230247
LJ  0.21714894146104649   0.27949954996888987   -0.27254937761722825
LJ  -0.42288868233970034   0.49204454009920534   0.21144808101503468
LJ  -0.11325735399019293   -0.28635439050716571   0.125548262534734
LJ  -0.39730339941056025   0.35583099363030635   0.39772682488424949
LJ  0.35257412144292716   -0.3491758620404794   -0.39140328612635517
LJ  -0.33485043637304157   0.34540617907106996   0.25743692924293687
LJ  -0.060319633488816991   0.19065867777634635   -0.20169614996542248
LJ  0.45169886491485739   -0.37783166835643672   -0.13714775929058767
LJ  -0.4509351179828241   -0.36154473387122488   -0.33580049994987732
LJ  -0.14405162810829245   -0.20803780747229497   0.0080905338880155851
LJ  0.052541631709017267   0.39734066512835087   0.34871776101755853
LJ  -0.37538871252740069   -0.24928892132601796   0.48400890441012939
LJ  0.29233320105885247   0.25255977419587866   0.026674686341316971
LJ  0.0033362052407373754   0.28917059807721579   0.40177244154377512
LJ  0.26512778380836388   -0.092334972940493101   -0.36769828499863627
LJ  -0.072265665399873752   -0.066675878535749647   -0.10845684730011443
LJ  0.078552903234889074   -0.49339058549729253   -0.036658859956191253
LJ  0.29157021702276742   0.10410359185284254   -0.086118577662345319
LJ  0.30800336952601481   0.03424406252572279   -0.032085375882358977
LJ  0.4799017350649955   0.22361436918203675   -0.19386737853573111
LJ  0.078687102357866565   -0.27952063703596758   0.13683977019609167
LJ  0.48630851319519813   -0.39615016055833946   0.092180951159644378
LJ  -0.16055837384727853   -0.39157493579965158   -0.0816728998848881
LJ  0.43233607207065705   0.1125368278938905   -0.39218926829206602
LJ  0.42918267762580653   -0.026471131391995618   -0.061813740167447111
LJ  0.22575858100182072   -0.16944965687605634   -0.42037901983299375
LJ  0.24680889665846184   -0.48444032466687875   -0.15390251367536939
LJ  -0.35962989883403879   0.008010368520905975   0.21443780357372516
LJ  0.31928503109303946   0.17265371608584212   0.20832576527542288
LJ  0.014911610485868441   0.10773047873136911   0.037865653552794684
LJ  0.29988241705178326   -0.2571746303328854   -0.058469566998741812
LJ  0.34282959533930485   0.49021106715587942   0.43864556303565477
LJ  -0.08248052515709077   0.34562867760668681   0.1648878014873639
LJ  0.48020278561693247   -0.028772789580114675   -0.15445031923380004
LJ  0.10723144979438477   -0.37676721975220129   0.17813764763681475
LJ  -0.1647408096047363   -0.32716481932256886   0.29146207489000153
LJ  0.067428976396749635   -0.27926607938495818   0.054118880973944357
LJ  -0.38228158073733531   0.10694342280049782   -0.48398747609108272
LJ  0.21662537325836387   0.32737507992022147   -0.4149639202507755
LJ  -0.065596722540720048   -0.18400626364739583   0.32189872626628729
LJ  0.42356597621741177   0.23386916507024658   0.048648982601245741
LJ  -0.21832059246215804   0.43065611967485795   -0.051976104423512907
LJ  0.46170850679160019   0.04081436179119817   -0.4764104648957882
LJ  0.45147996951886332   -0.1538114477615907   0.26895553034829539
LJ  0.31355066790592045   0.17420081132716153   0.052607536002930257
LJ  0.075525460221604279   0.1134623314790268   0.093656521796413303
