108
#Comment!
LJ  0.21756133790787377   -0.19215487400921344   0.47358025946169935
LJ  0.25779018519429298   0.075991705927448805   -0.26027918925099169
LJ  0.12953097327496113   0.39626170756043583   0.057122390302589851
LJ  -0.47229861245688681   0.093947954810509979   -0.46591188086700747
LJ  0.31705885622104124   0.011611183406870703   -0.11866865006716551
LJ  -0.33150912827410733   0.43188390296005574   0.42392525019917215
LJ  -0.01143118862851376   -0.13456529128902073   -0.4799861595428751
LJ  0.3152513703660445   -0.17482988024732221   -0.22022966280999978
LJ  0.12427742080750824   -0.41852068802527964   0.0097889021137689998
LJ  -0.050398319702573309   -0.14777713131020695   -0.036139717114037011
LJ  -0.39045113674639742   -0.39428937747847792   0.29035945230219556
LJ  -0.22300558624508954   0.46974561387742186   -0.4825802733834752
LJ  -0.4792741368655315   -0.46480652225004326   0.16092122724648802
LJ  -0.19347407367826577   0.091193657201499342   0.19721767652105593
LJ  -0.041900669261599431   -0.20522337265413768   0.013969913029902126
LJ  0.22547996329651104   -0.13318927517509407   0.3910666196775906
LJ  0.22728340598323468   0.29087443853950895   0.29794355851920085
LJ  0.43625206589934129   -0.24830179809399949   -0.40222317894518056
LJ  0.4557428004941001   0.38019608691035084   -0.35606244369984247
LJ  0.044979559786637847   0.15616398350284788   -0.23422166361029567
LJ  0.4789394707276256   -0.43972346310113947   -0.24754101145509119
LJ  -0.21513228377812382   -0.046435251006488203   0.14918858978617675
LJ  -0.23268168666516317   -0.25061518404906763   0.21912101571003997
LJ  -0.30192831392378183   0.33866525469981545   0.3502302387529504
LJ  0.41577729287473453   0.11711241525661562   -0.29497378201254992
LJ  0.48789816406158837   0.32996460407333694   -0.072265038631742232
LJ  -0.43734165423231841   0.17919957069815845   -0.45676593092241963
LJ  0.42787034206541658   -0.14782071964394283   0.49262970987975818
LJ  -0.018856547982300551   -0.28559177248761369   0.054340934744454512
LJ  -0.4399494096004134   -0.28140816582875355   0.1052144686488137
LJ  -0.32366378936220286   -0.26689305701567828   0.17744194058100801
LJ  -0.1837151788409406   0.15982962353676181   -0.28880547812186586
LJ  0.46458660337145097   0.36093098578734467   -0.25596703526525877
LJ  0.13366701088249716   0.48014569204873497   0.39793775158032652
LJ  -0.27991051830136415   0.10040867196249033   0.34869955573530487
LJ  0.23663249491672592   0.12586214018414665   -0.46924263808899436
LJ  0.2200576084697779   -0.37989651240889144   -0.10122187386528923
LJ  0.42592905693676097   0.43889043523799004   0.37485394147460904
LJ  0.30705089211820907   0.37502847768956288   -0.1759755972761062
LJ  -0.13131991215220337   0.20063387071771607   -0.13364969601492566
LJ  0.26114030574550451   0.1781177863581685   -0.16740116310215999
LJ  -0.23149536912541027   -0.40891509361403089   0.24784135219995618
LJ  -0.028320501298305337   0.37677643242877468   0.26063264790671353
LJ  0.39242771961619916   -0.40725883861433276   -0.25193812372771052
LJ  0.28344501320497589   -0.15546913261844417   0.18433408537381685
LJ  -0.0025535418395148174   0.39360174684256427   0.049268174735853015
LJ  -0.32744875108001448   -0.35437330669552247   0.37952755327897147
LJ  0.4445939696248779   -0.49309702512231585   0.45968218007678485
LJ  0.18313135551874163   0.32175963937897895   -0.075888863945399926
LJ  0.16697685933446962   -0.28895060724697053   0.065665435575600992
LJ  0.41035222346698852   -0.33286961217147626   0.0069508633699509968
LJ  0.32504195438041078   0.22287629086898725   0.12421118871773587
LJ  -0.47454206365638307   0.26673792884399239   0.079607199409769847
LJ  -0.078023525427558568   0.29386093718658707   -0.00062456783360867463
LJ  0.15527990073658507   0.45333857023211499   0.4749753167828713
LJ  0.011016082335855463   0.079415304686514795   -0.31368518573169657
LJ  0.44531587673000378   0.26104905777993709   -0.46517098988243599
LJ  -0.08172176378828723   0.22802062333745374   0.31910401175223235
LJ  -0.40778230554951744   -0.031645470893899616   -0.10050310548712862
LJ  0.35611929205097037   0.14291166135444391   0.12033145003155576
LJ  -0.47901783208081705   0.097232440658644226   0.23345462470049502
LJ  0.12324464524544139   -0.12475356003087595   0.48670420379096763
LJ  0.21714347330878322   0.27958774188134833   -0.27240537783989371
LJ  -0.42306928386754494   0.49199253598694564   0.21137465532612662
LJ  -0.11321188784170325   -0.28634759495613421   0.12559970329728978
LJ  -0.39735127994333164   0.35584138365102042   0.39764261599854467
LJ  0.35253563728100767   -0.34931696321726541   -0.39125446144904241
LJ  -0.33492311619112208   0.34541080198863994   0.2573659540858112
LJ  -0.060267273904149488   0.19079020434479799   -0.20158693363596586
LJ  0.45173174618691697   -0.37787570860365927   -0.1370979252878376
LJ  -0.45088200618701346   -0.3614800929230837   -0.33588370780315058
LJ  -0.14393501781257542   -0.20817908817502637   0.0081660643571555107
LJ  0.052535372841104398   0.39741764612713548   0.34846895648838794
LJ  -0.37541913151413181   -0.24923761704432143   0.48393590318487001
LJ  0.29221317405332786   0.2526430529883017   0.026625939357031937
LJ  0.0033266212661540854   0.28909948934979512   0.40177200193694868
LJ  0.26509853140192652   -0.092476266509421215   -0.36774240850449041
LJ  -0.072267092744476347   -0.066720194102557889   -0.10859999065999476
LJ  0.078598648361720314   -0.49338766966791409   -0.036665804071843972
LJ  0.29171887924208584   0.10426449638820591   -0.085968640282310618
LJ  0.30791213746932511   0.034205690232909813   -0.032081399679153591
LJ  0.48005076269554975   0.2235812150888109   -0.19398997061076201
LJ  0.078843675022812823   -0.27949098223109869   0.13689191622559288
LJ  0.48631406262039023   -0.39619940996820591   0.092263589375268323
LJ  -0.16059086920547563   -0.3915355307384123   -0.081550277518081277
LJ  0.43227229822346686   0.11243443387022316   -0.3922718440439209
LJ  0.42896714277683418   -0.026699628743681873   -0.062047313320837662
LJ  0.22578175282927193   -0.16939114597897806   -0.42035027218062182
LJ  0.24676680344497143   -0.4844951341120427   -0.15397325270029638
LJ  -0.35967807529339585   0.0080661757607959645   0.21450833616764142
LJ  0.31920244388139468   0.17280415593930853   0.20830304958690782
LJ  0.014788075377161092   0.10772862445831723   0.037768472444423488
LJ  0.29973564481793358   -0.25718353421764067   -0.058423107870634032
LJ  0.34277575921659797   0.49023026992871654   0.43852916321132862
LJ  -0.082512106005348945   0.3457303266783836   0.16474194055475319
LJ  0.48032805902682729   -0.028910531460072355   -0.15433939594743051
LJ  0.10737710578102683   -0.37680923641085201   0.1781581658739016
LJ  -0.16452404243732441   -0.32723020054773116   0.29142367505495947
LJ  0.067423588071054197   -0.27940639288774277   0.054098570127876375
LJ  -0.38219820704498658   0.106932963073921   -0.48379815118169517
LJ  0.21673950392598706   0.32754564501433586   -0.41500751169829447
LJ  -0.065598541867839477   -0.18405554460935164   0.32194981746002288
LJ  0.42353935383287855   0.23383869024928122   0.048743945145869383
LJ  -0.21831467775765723   0.43062710642022639   -0.051916715677464968
LJ  0.46172915307535861   0.040730715561078136   -0.47644768180785979
LJ  0.45147192671119957   -0.15377552722819279   0.26894291854782165
LJ  0.31376946115675086   0.17433390686307923   0.052641641739481
LJ  0.075497534084121284   0.11350131577634533   0.093564350385767589
